25 73 179
1 6 5
1 14 2
1 15 2
2 9 2
2 11 1
2 19 1
2 20 3
2 23 2
2 25 5
3 10 5
3 13 2
3 15 5
3 18 5
3 20 2
3 21 5
4 5 3
4 9 4
4 11 4
4 12 5
4 15 4
4 24 1
5 8 5
5 9 3
5 12 1
6 13 2
6 18 5
6 20 4
6 21 1
6 23 4
6 25 3
7 8 2
7 9 1
7 21 1
7 22 5
7 23 5
8 9 3
8 13 3
8 15 5
8 25 2
9 11 4
9 20 1
9 23 5
9 24 1
10 16 1
10 21 4
10 25 2
11 13 5
11 24 4
12 16 2
12 20 2
12 23 2
12 24 4
12 25 3
13 15 5
13 20 5
13 23 5
14 16 1
14 20 1
14 22 4
14 23 3
14 24 3
15 18 1
15 23 5
16 17 1
16 18 4
17 24 2
18 22 5
19 21 5
19 23 5
20 22 4
21 22 3
22 24 1
22 25 1
